*SPEF "ieee 1481-1999"
*DESIGN "hs_tx_pd"
*DATE "18:51:20 Tuesday September 29, 2026"
*VENDOR "The OpenROAD Project"
*PROGRAM "OpenROAD"
*VERSION "26Q3-2676-g943a4d2c92"
*DESIGN_FLOW "NAME_SCOPE LOCAL" "PIN_CAP NONE"
*DIVIDER /
*DELIMITER :
*BUS_DELIMITER []
*T_UNIT 1 NS
*C_UNIT 1 PF
*R_UNIT 1 OHM
*L_UNIT 1 HENRY

*NAME_MAP
*3 d
*11 db
*12 db1
*13 db2
*14 dt
*4 hsn
*5 hsp
*6 lpinn
*7 lpinp
*8 lpn
*9 lpp
*15 nn
*16 np
*10 oe
*17 oeb
*18 FILLER_0_0
*19 FILLER_0_14
*20 FILLER_0_21
*21 FILLER_0_28
*22 FILLER_0_35
*23 FILLER_0_42
*24 FILLER_0_49
*25 FILLER_0_56
*26 FILLER_0_7
*27 FILLER_1_0
*28 FILLER_1_24
*29 FILLER_1_31
*30 FILLER_1_38
*31 FILLER_1_59
*32 FILLER_2_0
*33 FILLER_2_11
*34 FILLER_2_18
*35 FILLER_2_41
*36 FILLER_2_48
*37 FILLER_2_55
*38 FILLER_2_59
*39 FILLER_2_7
*40 FILLER_3_0
*41 FILLER_3_14
*42 FILLER_3_21
*43 FILLER_3_28
*44 FILLER_3_35
*45 FILLER_3_42
*46 FILLER_3_49
*47 FILLER_3_56
*48 FILLER_3_7
*49 FILLER_4_0
*50 FILLER_4_12
*51 FILLER_4_19
*52 FILLER_4_26
*53 FILLER_4_33
*54 FILLER_4_40
*55 FILLER_4_47
*56 FILLER_4_54
*57 FILLER_4_58
*58 FILLER_4_7
*59 FILLER_5_0
*60 FILLER_5_13
*61 FILLER_5_20
*62 FILLER_5_27
*63 FILLER_5_34
*64 FILLER_5_41
*65 FILLER_5_48
*66 FILLER_5_55
*67 FILLER_5_59
*68 FILLER_6_0
*69 FILLER_6_13
*70 FILLER_6_20
*71 FILLER_6_27
*72 FILLER_6_34
*73 FILLER_6_41
*74 FILLER_6_48
*75 FILLER_6_55
*76 FILLER_6_59
*77 FILLER_7_0
*78 FILLER_7_14
*79 FILLER_7_21
*80 FILLER_7_28
*81 FILLER_7_35
*82 FILLER_7_42
*83 FILLER_7_49
*84 FILLER_7_56
*85 FILLER_7_7
*86 xdb
*87 xdb1
*88 xdb2
*89 xdt
*90 xln
*91 xlp
*92 xnn
*93 xnp
*94 xoeb
*95 xon
*96 xop

*PORTS
d I
hsn O
hsp O
lpinn O
lpinp O
lpn I
lpp I
oe I

*D_NET *3 0.00160922
*CONN
*P d I
*I *87:A I *D sg13g2_inv_1
*I *89:A I *D sg13g2_buf_2
*CAP
1 d 0.000627608
2 *87:A 0.000132121
3 *89:A 4.4882e-05
4 *3:9 0.000804611
5 *87:A *92:A 0
6 *87:A *93:A 0
7 *87:A *93:B 0
8 *89:A *92:A 0
*RES
1 d *3:9 27.4984 
2 *3:9 *89:A 20.5356 
3 *3:9 *87:A 21.8746 
*END

*D_NET *11 0.000227757
*CONN
*I *93:A I *D sg13g2_nand2_2
*I *86:Y O *D sg13g2_inv_1
*CAP
1 *93:A 0.000113878
2 *86:Y 0.000113878
3 *87:A *93:A 0
*RES
1 *86:Y *93:A 41.4111 
*END

*D_NET *12 9.45957e-05
*CONN
*I *88:A I *D sg13g2_inv_1
*I *87:Y O *D sg13g2_inv_1
*CAP
1 *88:A 4.72978e-05
2 *87:Y 4.72978e-05
3 *88:A *92:A 0
*RES
1 *87:Y *88:A 40.5974 
*END

*D_NET *13 0.000484054
*CONN
*I *86:A I *D sg13g2_inv_1
*I *88:Y O *D sg13g2_inv_1
*CAP
1 *86:A 0
2 *88:Y 0.000150715
3 *13:8 0.000150715
4 *13:8 *15:8 0
5 *13:8 *16:10 0.000182624
6 *10:20 *13:8 0
*RES
1 *88:Y *13:8 42.0806 
2 *13:8 *86:A 40 
*END

*D_NET *14 0.000661479
*CONN
*I *92:A I *D sg13g2_nand2_2
*I *89:X O *D sg13g2_buf_2
*CAP
1 *92:A 0.000330739
2 *89:X 0.000330739
3 *87:A *92:A 0
4 *88:A *92:A 0
5 *89:A *92:A 0
6 *93:B *92:A 0
*RES
1 *89:X *92:A 43.8831 
*END

*D_NET *4 0.00124266
*CONN
*P hsn O
*I *95:Y O *D sg13g2_inv_16
*CAP
1 hsn 0.000621329
2 *95:Y 0.000621329
*RES
1 *95:Y hsn 48.1061 
*END

*D_NET *5 0.00114579
*CONN
*P hsp O
*I *96:Y O *D sg13g2_inv_16
*CAP
1 hsp 0.000572893
2 *96:Y 0.000572893
*RES
1 *96:Y hsp 46.7877 
*END

*D_NET *6 0.00286756
*CONN
*P lpinn O
*I *90:Y O *D sg13g2_nand2_2
*CAP
1 lpinn 1.84946e-05
2 *90:Y 0
3 *6:12 0.00143378
4 *6:6 0.00141529
*RES
1 *90:Y *6:6 40 
2 *6:6 *6:12 38.0662 
3 *6:12 lpinn 20.1957 
*END

*D_NET *7 0.00236956
*CONN
*P lpinp O
*I *91:Y O *D sg13g2_nand2_2
*CAP
1 lpinp 0.00118478
2 *91:Y 0
3 *7:6 0.00118478
*RES
1 *91:Y *7:6 40 
2 *7:6 lpinp 15.2749 
*END

*D_NET *8 0.00143191
*CONN
*P lpn I
*I *90:A I *D sg13g2_nand2_2
*CAP
1 lpn 0.000715955
2 *90:A 0.000715955
*RES
1 lpn *90:A 48.7035 
*END

*D_NET *9 0.000796947
*CONN
*P lpp I
*I *91:A I *D sg13g2_nand2_2
*CAP
1 lpp 0.000398473
2 *91:A 0.000398473
*RES
1 lpp *91:A 45.2427 
*END

*D_NET *15 0.00039667
*CONN
*I *95:A I *D sg13g2_inv_16
*I *92:Y O *D sg13g2_nand2_2
*CAP
1 *95:A 0
2 *92:Y 0.00016052
3 *15:8 0.00016052
4 *15:8 *16:10 0
5 *10:20 *15:8 7.56299e-05
6 *13:8 *15:8 0
*RES
1 *92:Y *15:8 42.0806 
2 *15:8 *95:A 40 
*END

*D_NET *16 0.00106522
*CONN
*I *96:A I *D sg13g2_inv_16
*I *93:Y O *D sg13g2_nand2_2
*CAP
1 *96:A 0
2 *93:Y 0.000441297
3 *16:10 0.000441297
4 *13:8 *16:10 0.000182624
5 *15:8 *16:10 0
*RES
1 *93:Y *16:10 45.8607 
2 *16:10 *96:A 40 
*END

*D_NET *10 0.00227442
*CONN
*P oe I
*I *93:B I *D sg13g2_nand2_2
*I *92:B I *D sg13g2_nand2_2
*I *94:A I *D sg13g2_inv_1
*CAP
1 oe 0.00041746
2 *93:B 0.000206964
3 *92:B 1.57484e-05
4 *94:A 0.000342825
5 *10:20 0.000339111
6 *10:5 0.000876684
7 *93:B *92:A 0
8 *10:20 *13:8 0
9 *10:20 *15:8 7.56299e-05
10 *87:A *93:B 0
*RES
1 oe *10:5 5.3869 
2 *10:5 *94:A 43.8831 
3 *10:5 *10:20 21.5862 
4 *10:20 *92:B 20.2111 
5 *10:20 *93:B 22.3999 
*END

*D_NET *17 0.000629807
*CONN
*I *90:B I *D sg13g2_nand2_2
*I *91:B I *D sg13g2_nand2_2
*I *94:Y O *D sg13g2_inv_1
*CAP
1 *90:B 0.000162414
2 *91:B 0
3 *94:Y 0.00015249
4 *17:6 0.000314903
*RES
1 *94:Y *17:6 21.6171 
2 *17:6 *91:B 20 
3 *17:6 *90:B 21.8334 
*END
